% number of games is 90
num = 90;
cap = 5;
refill = 2;
fun = [7, -16, 11, 4, 8, -15, -19, 19, -2, 19, -4, 7, 18, -10, -20, -1, -17, 7, 5, -11, 13, 19, 18, -11, -10, -15, -5, -9, 5, 15, -2, 1, -2, -18, 16, -12, 5, -19, -9, -1, 2, -16, 9, -17, -1, -10, 7, -5, -1, 0, -3, 7, 12, -7, 7, 3, 15, 0, -7, 20, 5, 2, -20, 2, 7, -17, 13, -18, 7, 4, 19, 19, -6, 12, -18, -12, -10, -17, -3, -3, -13, -18, 17, 13, -11, 0, -2, -10, 9, 0];
